p cnf 10 28
 -1 -2 5 0
 1 -5 0
 2 -5 0
 -1 -3 6 0
 1 -6 0
 3 -6 0
 -1 -4 7 0
 1 -7 0
 4 -7 0
 -2 -3 8 0
 2 -8 0
 3 -8 0
 -2 -4 9 0
 2 -9 0
 4 -9 0
 -3 -4 10 0
 3 -10 0
 4 -10 0
 1 2 0
 -1 -2 0
 3 4 0
 -3 -4 0
 1 3 0
 -1 -3 0
 2 4 0
 -2 -4 0
 -5 -10 0
 -6 -9 0
